c 
c G(n,p) graph
c graph gen seed     : 695
c number of vertices : 50
c max number of edges: 1225
c edge probability   : 0.400000
c data structure     : sparse
c
c           Graph Stats
c number of vertices  : 50
c nonisolated vertices: 50
c number of edges     : 484
c edge density        : 0.395102
c max degree          : 26
c avg degree          : 19.36
c min degree          : 11
p col 50 484
e 1 50
e 1 48
e 1 46
e 1 44
e 1 41
e 1 39
e 1 38
e 1 37
e 1 26
e 1 25
e 1 23
e 1 21
e 1 18
e 1 12
e 1 11
e 1 9
e 1 7
e 1 5
e 1 2
e 2 49
e 2 46
e 2 42
e 2 41
e 2 40
e 2 38
e 2 37
e 2 36
e 2 35
e 2 34
e 2 33
e 2 30
e 2 28
e 2 25
e 2 23
e 2 21
e 2 19
e 2 18
e 2 17
e 2 16
e 2 13
e 2 11
e 2 8
e 2 7
e 2 5
e 3 47
e 3 45
e 3 43
e 3 42
e 3 41
e 3 40
e 3 37
e 3 36
e 3 30
e 3 29
e 3 22
e 3 19
e 3 17
e 3 16
e 3 14
e 3 12
e 3 5
e 4 44
e 4 40
e 4 39
e 4 38
e 4 33
e 4 32
e 4 31
e 4 29
e 4 26
e 4 25
e 4 21
e 4 20
e 4 19
e 4 14
e 4 10
e 4 8
e 4 7
e 5 49
e 5 45
e 5 44
e 5 38
e 5 37
e 5 34
e 5 32
e 5 30
e 5 29
e 5 27
e 5 22
e 5 20
e 5 17
e 5 14
e 5 13
e 5 10
e 5 8
e 5 6
e 6 50
e 6 48
e 6 47
e 6 46
e 6 41
e 6 38
e 6 36
e 6 33
e 6 32
e 6 27
e 6 26
e 6 25
e 6 24
e 6 19
e 6 18
e 6 16
e 6 15
e 6 13
e 6 12
e 6 10
e 7 49
e 7 45
e 7 44
e 7 42
e 7 41
e 7 39
e 7 35
e 7 33
e 7 32
e 7 31
e 7 27
e 7 23
e 7 22
e 7 20
e 7 15
e 7 14
e 7 13
e 8 49
e 8 48
e 8 47
e 8 46
e 8 45
e 8 38
e 8 31
e 8 30
e 8 27
e 8 26
e 8 25
e 8 23
e 8 20
e 8 19
e 8 17
e 8 15
e 8 13
e 8 9
e 9 47
e 9 45
e 9 41
e 9 39
e 9 38
e 9 36
e 9 35
e 9 34
e 9 31
e 9 30
e 9 29
e 9 22
e 9 20
e 9 19
e 9 15
e 9 14
e 9 12
e 10 49
e 10 47
e 10 43
e 10 42
e 10 40
e 10 38
e 10 37
e 10 36
e 10 29
e 10 26
e 10 22
e 10 18
e 10 17
e 10 15
e 10 13
e 11 49
e 11 48
e 11 46
e 11 38
e 11 37
e 11 36
e 11 35
e 11 32
e 11 30
e 11 27
e 11 26
e 11 25
e 11 24
e 11 23
e 11 22
e 11 18
e 11 17
e 11 16
e 12 47
e 12 46
e 12 44
e 12 42
e 12 40
e 12 39
e 12 38
e 12 37
e 12 36
e 12 35
e 12 34
e 12 33
e 12 29
e 12 28
e 12 27
e 12 22
e 12 21
e 12 19
e 12 17
e 12 13
e 13 45
e 13 41
e 13 34
e 13 33
e 13 32
e 13 30
e 13 27
e 13 26
e 13 19
e 13 18
e 13 17
e 14 50
e 14 37
e 14 36
e 14 35
e 14 33
e 14 32
e 14 26
e 14 23
e 14 21
e 14 20
e 14 19
e 14 18
e 15 41
e 15 30
e 15 26
e 15 24
e 15 20
e 15 16
e 16 50
e 16 40
e 16 39
e 16 37
e 16 35
e 16 31
e 16 30
e 16 29
e 16 25
e 16 20
e 16 19
e 16 17
e 17 50
e 17 45
e 17 43
e 17 42
e 17 39
e 17 38
e 17 34
e 17 33
e 17 32
e 17 28
e 17 27
e 17 26
e 17 24
e 17 22
e 17 21
e 18 50
e 18 49
e 18 46
e 18 45
e 18 41
e 18 37
e 18 36
e 18 35
e 18 32
e 18 30
e 18 29
e 18 25
e 18 22
e 19 46
e 19 43
e 19 27
e 19 26
e 19 25
e 20 49
e 20 47
e 20 29
e 20 27
e 20 25
e 20 24
e 20 23
e 20 22
e 20 21
e 21 50
e 21 48
e 21 47
e 21 43
e 21 41
e 21 40
e 21 36
e 21 34
e 21 31
e 21 27
e 21 25
e 21 24
e 21 23
e 22 49
e 22 45
e 22 44
e 22 41
e 22 38
e 22 36
e 22 33
e 22 30
e 22 29
e 22 25
e 22 24
e 22 23
e 23 49
e 23 48
e 23 44
e 23 38
e 23 37
e 23 36
e 23 34
e 23 32
e 23 31
e 23 27
e 23 26
e 23 25
e 24 37
e 24 36
e 24 35
e 24 34
e 24 31
e 24 28
e 24 25
e 25 48
e 25 47
e 25 45
e 25 42
e 25 41
e 25 33
e 25 30
e 25 29
e 25 28
e 25 27
e 26 50
e 26 47
e 26 43
e 26 42
e 26 37
e 27 46
e 27 45
e 27 43
e 27 41
e 27 40
e 27 38
e 27 35
e 27 30
e 28 50
e 28 49
e 28 48
e 28 47
e 28 44
e 28 42
e 28 39
e 28 34
e 28 33
e 28 32
e 28 29
e 29 50
e 29 49
e 29 45
e 29 44
e 29 43
e 29 42
e 29 37
e 29 36
e 29 35
e 29 34
e 29 33
e 29 32
e 29 31
e 30 48
e 30 47
e 30 44
e 30 43
e 30 42
e 30 39
e 30 38
e 30 35
e 31 50
e 31 48
e 31 44
e 31 42
e 31 40
e 31 37
e 31 35
e 31 34
e 31 33
e 32 47
e 32 45
e 32 44
e 32 43
e 32 41
e 32 40
e 32 39
e 32 36
e 32 35
e 32 34
e 33 49
e 33 48
e 33 47
e 33 46
e 33 45
e 33 44
e 33 42
e 33 41
e 33 40
e 33 37
e 33 36
e 33 35
e 34 50
e 34 48
e 34 45
e 34 35
e 35 48
e 35 47
e 35 41
e 35 40
e 35 39
e 35 38
e 36 50
e 36 45
e 36 40
e 36 39
e 37 50
e 37 49
e 37 47
e 37 45
e 37 38
e 38 50
e 38 49
e 38 48
e 38 46
e 38 43
e 38 42
e 39 50
e 39 49
e 39 48
e 39 47
e 39 44
e 39 43
e 39 41
e 40 49
e 40 47
e 40 44
e 40 43
e 41 49
e 41 46
e 41 42
e 42 47
e 43 50
e 43 49
e 43 48
e 43 46
e 43 44
e 44 48
e 46 50
e 47 48
e 48 49
e 49 50
